43
0 1 2 2 3 4 5 6 7 8 9 10 11 12 7 13 14 15 16 13 17 2 3 18 7 10 19 20 21 22 23 24 25 25 26 8 22 27 28 1 29 6 30 31 32 12 33 30 34 35 36 11 15 37 20 23 38 26 34 6 35 39 38 32 40 1 0 23 14 24 41 8 36 33 27 5 36 29 0 42 24 5 19 42 40 39 28 18 16 4 27 11 31 40 21 10 29 9 21 37 
